GPU_version/outputs/rc104.out
Total number of lines in the file: 110
Total number of nodes including depot: 101
Customer 1: (40, 50), Demand: 0, Time Window: [0, 240], Service Time: 0
Customer 2: (25, 85), Demand: 20, Time Window: [0, 191], Service Time: 10
Customer 3: (22, 75), Demand: 30, Time Window: [0, 199], Service Time: 10
Customer 4: (22, 85), Demand: 10, Time Window: [0, 190], Service Time: 10
Customer 5: (20, 80), Demand: 40, Time Window: [141, 171], Service Time: 10
calling MST kernel
Post Processing Route
Post 2 opt Processing Route
2-opt between 10 and 11 improved cost from 1742.62 to 1742.39
Elapsed time: 0.72774 seconds
Final Route: 
Route #1: 80 91 92 95 84 85 63 
Route #2: 76 89 51 56 64 
Route #3: 62 50 34 31 29 27 26 28 
Route #4: 30 32 33 
Route #5: 67 94 96 54 81 61 68 
Route #6: 72 41 39 38 37 36 35 42 
Route #7: 44 43 40 93 71 90 
Route #8: 65 82 99 52 57 86 74 
Route #9: 87 59 97 58 
Route #10: 75 77 25 
Route #11: 23 21 48 18 19 49 20 22 24 66 
Route #12: 83 69 98 88 55 100 70 
Route #13: 60 78 73 79 7 
Route #14: 8 46 4 45 5 3 
Route #15: 1 6 2 12 
Route #16: 11 10 9 13 14 47 
Route #17: 17 15 16 53 
Route #18: Total Distance: 1742.62
Final route is valid
