outputs/rc104.txt.out
filename: RC104
Vehicles: 25, Capacity: 200
Total customers : 101
No of routes: 15
Route #1: 80 91 92 95 62 67 29 31 34 50
Route #2: 27 26 28 30 32 33 56 64
Route #3: 84 85 63 51
Route #4: 76 89 94 93 71 96
Route #5: 54 72 41 39 38 37 35 36 40 42
Route #6: 81 44 43 61 68 90 65
Route #7: 66 83 82 99 52 86 74 57
Route #8: 87 59 97 58
Route #9: 75 77 25
Route #10: 20 49 19 18 48 21 23 22 24
Route #11: 69 98 88 55 100 70
Route #12: 60 78 73 79 7 6 2
Route #13: 8 46 4 45 5 3 1
Route #14: 12 11 10 9 13 47 14
Route #15: 15 16 17 53
Cost 1547
